; https=//stackoverflow.com/questions/28627624/excel-single-cell-to-multiple-rows-and-get-substring
(set-logic SLIA)
(synth-fun f ((_arg_0 String)) String 
 ( (Start String (ntString)) 
 (ntString String (
	_arg_0
	"" " " "=" "-"
	(str.++ ntString ntString) 
	(str.replace ntString ntString ntString) 
	(str.at ntString ntInt)
	(int.to.str ntInt)
	(ite ntBool ntString ntString)
	(str.substr ntString ntInt ntInt)
)) 
 (ntInt Int (
	
	1 0 -1
	(+ ntInt ntInt)
	(- ntInt ntInt)
	(str.len ntString)
	(str.to.int ntString)
	(ite ntBool ntInt ntInt)
	(str.indexof ntString ntString ntInt)
)) 
 (ntBool Bool (
	
	true false
	(= ntInt ntInt)
	(str.prefixof ntString ntString)
	(str.suffixof ntString ntString)
	(str.contains ntString ntString)
)) ))
(constraint (= (f "Dec 2, 2014, 11=23 PM - +91 90000 80000= loren ipsum") "loren ipsum"))
(constraint (= (f "Dec 2, 2014, 11=24 PM - +91 90000 80000= loren") "loren"))
(check-synth)
